# Solution for model r10_t9_m2_7
# Finished Task: 9 / 9
# Makespan: 478.0, Total Distance: 530.0, Total Time: 0.0657
# R O S F
0 0 17 0.0 0.0
1 1 14 0.0 0.0
2 2 15 0.0 0.0
3 3 10 0.0 0.0
4 4 18 0.0 0.0
5 5 -1 0.0 0.0
6 6 -1 0.0 0.0
7 7 -1 0.0 0.0
8 8 -1 0.0 0.0
9 9 -1 0.0 0.0
10 3 -1 365.0 390.0
11 0 -1 445.0 478.0
12 2 -1 396.0 420.0
13 2 12 365.0 396.0
14 1 16 363.0 383.0
15 2 13 279.0 301.0
16 1 -1 420.0 445.0
17 0 11 336.0 365.0
18 4 -1 390.0 427.0
